Maximize

52.5 b0 + 15.5 b1 + 36.0 b2 + 16.5 b3.v0 + 16.5 b3.v1 + 18.5 b4.v0 + 18.5 b4.v1 + 18.5 b4.v2 + 15.5 b5 + 172.0 b6 + 15.5 b7 + 71.0 b8 + 33.0 b9 + 3 b10 + 97.5 b11 + 18.5 b12.v0 + 18.5 b12.v1 + 3 b13 + 191.5 b14 + 49 b15.v0 + 49 b15.v1 + 108.0 b16.v0 + 108.0 b16.v1 + 39 b17.v0 + 39 b17.v1 + 23 b18.v0 + 21 b18.v1 + 31.0 b19.v0 + 31.0 b19.v1 + 32.0 b20 - 2 b21 + 48.5 b22.v0 + 48.5 b22.v1 + 48.5 b22.v2 + 48.5 b22.v3 + 48.5 b22.v4 + 13.5 b23 + 19.5 b24 + 6 b25 + 6 b26 + 24.5 b27 + 7 b28 + 23.5 b29 + 20.5 b30 + 22.5 b31 + 36.0 b32 + 6 b33.v0 + 6 b33.v1 + 13.5 b34 + 19.5 b35.v0 + 19.5 b35.v1 + 6 b36 + 8 b37 + 10 b38 + 110.5 b39 + 6 b40.v0 + 6 b40.v1 + 38.0 b41 + 136.0 b42.v0 + 133.0 b42.v1 + 66.0 b43 + 43.5 b44.v0 + 43.5 b44.v1 + 24 b45 + 13.5 b46.v0 + 13.5 b46.v1 + 36.0 b47.v0 + 32.0 b47.v1 + 36.0 b47.v2 + 6 b48 + 23.5 b49 + 10 b50 + 6 b51 + 8 b52 + 10 b53 + 8 b54 + 10 b55 + 20.5 b56 + 22.5 b57 + 105.5 b58 + 19.5 b59 + 38.0 b60 + 37.0 b61 + 33.0 b62 + 36.0 b63 + 49.5 b64 + 49.5 b65 + 6 b66.v0 + 6 b66.v1 + 28.5 b67 + 228.0 b68.v0 + 228.0 b68.v1 + 53.5 b69.v0 + 53.5 b69.v1 + 49.5 b70 + 36.0 b71.v0 + 36.0 b71.v1 + 32.0 b72.v0 + 36.0 b72.v1 + 32.0 b72.v2 + 32.0 b72.v3 + 36.0 b72.v4 + 32.0 b72.v5 + 36.0 b72.v6 + 49.5 b73 + 33.0 b74 + 49.5 b75 + 20.5 b76 + 245.5 b77 + 18.5 b78 + 6 b79 + 6 b80 + 171.0 b81 + 143.0 b82.v0 + 143.0 b82.v1 + 12 b83.v0 + 10 b83.v1 + 45.0 b84 + 31 b85 + 44.5 b86 + 3 b87 + 56.5 b88 + 18.5 b89.v0 + 18.5 b89.v1 + 18.5 b89.v2 + 37.0 b90 + 6 b91.v0 + 6 b91.v1 + 33.0 b92 + 11 b93 + 20.5 b94 + 185.0 b95 + 58.0 b96 + 20.5 b97 + 22.5 b98 + 19.5 b99 + 7 b100 + 8 b101 + 10 b102 + 1060.0 b103 + 36.0 b104 + 32.0 b106 + 23.5 b107 + 19.5 b108 + 20.5 b110 + 22.5 b111 + 8 b112 + 10 b113 + 20.5 b114 + 22.5 b115 + 12.5 x15_0.m + 12.5 x15_1.m + 12.5 x15_2.m + 12.5 x16_0.m + 12.5 x16_1.m + 12.5 x16_2.m + 12.5 x17_0.m + 12.5 x17_1.m + 12.5 x17_2.m + 12.5 x18_0.m + 12.5 x18_1.m + 12.5 x44_0.m + 12.5 x67_0.m + 12.5 x81_0.m + 12.5 x81_1.m + 12.5 x81_2.m + 12.5 x81_3.m + 12.5 x81_4.m + 12.5 x81_5.m + 12.5 x81_6.m + 12.5 x82_0.m + 12.5 x82_1.m + 12.5 x82_2.m + 12.5 x82_3.m + 12.5 x83_0.m + 12.5 x84_0.m + 12.5 x85_0.m + 12.5 x85_1.m + 12.5 dr15_0.m + 12.5 dr15_1.m + 12.5 dr15_2.m + 12.5 dr15_3.m + 12.5 dr15_4.m + 12.5 dr15_5.m + 12.5 dr15_6.m + 12.5 dr16_0.m + 12.5 dr16_1.m + 12.5 dr16_2.m + 12.5 dr16_3.m + 12.5 dr16_4.m + 12.5 dr16_5.m + 12.5 dr16_6.m + 12.5 dr17_0.m + 12.5 dr17_1.m + 12.5 dr17_2.m + 12.5 dr17_3.m + 12.5 dr17_4.m + 12.5 dr17_5.m + 12.5 dr18_0.m + 12.5 dr18_1.m + 12.5 dr18_2.m + 12.5 dr44_0.m + 12.5 dr44_1.m + 12.5 dr44_2.m + 12.5 dr45_0.m + 12.5 dr45_1.m + 12.5 dr45_2.m + 12.5 dr45_3.m + 12.5 dr50_0.m + 12.5 dr66_0.m + 12.5 dr67_0.m + 12.5 dr81_0.m + 12.5 dr81_1.m + 12.5 dr81_2.m + 12.5 dr81_3.m + 12.5 dr81_4.m + 12.5 dr81_5.m + 12.5 dr81_6.m + 12.5 dr81_7.m + 12.5 dr81_8.m + 12.5 dr81_9.m + 12.5 dr81_10.m + 12.5 dr81_11.m + 12.5 dr81_12.m + 12.5 dr81_13.m + 12.5 dr81_14.m + 12.5 dr81_15.m + 12.5 dr81_16.m + 12.5 dr81_17.m + 12.5 dr81_18.m + 12.5 dr81_19.m + 12.5 dr81_20.m + 12.5 dr82_0.m + 12.5 dr82_1.m + 12.5 dr82_2.m + 12.5 dr82_3.m + 12.5 dr82_4.m + 12.5 dr82_5.m + 12.5 dr82_6.m + 12.5 dr82_7.m + 12.5 dr82_8.m + 12.5 dr83_0.m + 12.5 dr84_0.m + 12.5 dr84_1.m + 12.5 dr85_0.m + 12.5 dr85_1.m + 12.5 dr85_2.m + 12.5 dr85_3.m + 12.5 dr85_4.m + 12.5 dr85_5.m + 12.5 dr85_6.m


Subject to

\ === tcfg constraints ===
dSta_0 = 1
b0 - dSta_0 = 0
b0 - d0_30 = 0
b1 - d31_1 = 0
b1 - d1_32 = 0
b2 - d35_2 = 0
b2 - d2_3 - d2_23 = 0
b3 - d2_3 - d23_3 = 0
b3 - d3_4 - d3_24 = 0
b4 - d3_4 - d24_4 - d29_4 = 0
b4 - d4_37 = 0
b5 - d38_5 = 0
b5 - d5_22 = 0
b6 - d29_6 = 0
b6 - d6_8 - d6_25 = 0
b7 - d113_7 = 0
b7 - d7_22 = 0
b8 - d6_8 = 0
b8 - d8_39 = 0
b9 - d47_9 = 0
b9 - d9_11 - d9_26 = 0
b10 - d115_10 = 0
b10 - d10_22 = 0
b11 - d9_11 = 0
b11 - d11_12 - d11_27 = 0
b12 - d11_12 - d27_12 = 0
b12 - d12_56 = 0
b13 - d57_13 = 0
b13 - d13_22 = 0
b14 - d27_14 = 0
b14 - d14_19 - d14_15 = 0
b15 - d14_15 - d18_15 = 0
b15 - d15_18 - d15_28 = 0
b16 - d16_16 - d28_16 = 0
b16 - d16_16 - d16_17 = 0
b17 - d16_17 - d28_17 = 0
b17 - d17_18 = 0
b18 - d15_18 - d17_18 = 0
b18 - d18_15 - d18_19 = 0
b19 - d14_19 - d18_19 = 0
b19 - d19_58 = 0
b20 - d72_20 = 0
b20 - d20_110 = 0
b21 - d111_21 = 0
b21 - d21_22 = 0
b22 - d5_22 - d7_22 - d10_22 - d13_22 - d21_22 = 0
b23 - d2_23 = 0
b23 - d23_3 = 0
b24 - d3_24 = 0
b24 - d24_4 - d24_29 = 0
b25 - d6_25 = 0
b25 - d25_112 = 0
b26 - d9_26 = 0
b26 - d26_114 = 0
b27 - d11_27 = 0
b27 - d27_14 - d27_12 = 0
b28 - d15_28 = 0
b28 - d28_17 - d28_16 = 0
b29 - d24_29 = 0
b29 - d29_6 - d29_4 = 0
b30 - d0_30 = 0
b30 - d30_31 = 0
b31 - d30_31 = 0
b31 - d31_1 = 0
b32 - d1_32 = 0
b32 - d32_33 - d32_36 = 0
b33 - d32_33 - d36_33 = 0
b33 - d33_35 = 0
b34 - d36_34 = 0
b34 - d34_35 = 0
b35 - d33_35 - d34_35 = 0
b35 - d35_2 = 0
b36 - d32_36 = 0
b36 - d36_34 - d36_33 = 0
b37 - d4_37 = 0
b37 - d37_38 = 0
b38 - d37_38 = 0
b38 - d38_5 = 0
b39 - d8_39 = 0
b39 - d39_40 - d39_48 = 0
b40 - d39_40 - d48_40 = 0
b40 - d40_52 = 0
b41 - d53_41 = 0
b41 - d41_42 - d41_49 = 0
b42 - d41_42 - d49_42 = 0
b42 - d42_54 = 0
b43 - d55_43 = 0
b43 - d43_46 - d43_44 = 0
b44 - d43_44 - d45_44 = 0
b44 - d44_45 - d44_50 = 0
b45 - d44_45 = 0
b45 - d45_44 - d45_46 = 0
b46 - d43_46 - d45_46 = 0
b46 - d46_47 = 0
b47 - d46_47 - d50_47 - d51_47 = 0
b47 - d47_9 = 0
b48 - d39_48 = 0
b48 - d48_40 - d48_51 = 0
b49 - d41_49 = 0
b49 - d49_42 = 0
b50 - d44_50 = 0
b50 - d50_47 = 0
b51 - d48_51 = 0
b51 - d51_47 = 0
b52 - d40_52 = 0
b52 - d52_53 = 0
b53 - d52_53 = 0
b53 - d53_41 = 0
b54 - d42_54 = 0
b54 - d54_55 = 0
b55 - d54_55 = 0
b55 - d55_43 = 0
b56 - d12_56 = 0
b56 - d56_57 = 0
b57 - d56_57 = 0
b57 - d57_13 = 0
b58 - d19_58 = 0
b58 - d58_59 - d58_73 = 0
b59 - d58_59 = 0
b59 - d59_60 - d59_74 = 0
b60 - d59_60 = 0
b60 - d60_61 - d60_75 = 0
b61 - d60_61 = 0
b61 - d61_62 - d61_76 = 0
b62 - d61_62 = 0
b62 - d62_71 = 0
b63 - d71_63 = 0
b63 - d63_64 - d63_77 = 0
b64 - d63_64 = 0
b64 - d64_72 = 0
b65 - d79_65 = 0
b65 - d65_68 - d65_66 = 0
b66 - d65_66 - d67_66 = 0
b66 - d66_81 = 0
b67 - d83_67 = 0
b67 - d67_66 - d67_68 = 0
b68 - d65_68 - d67_68 = 0
b68 - d68_69 - d68_78 = 0
b69 - d68_69 - d92_69 = 0
b69 - d69_72 = 0
b70 - d80_70 = 0
b70 - d70_72 = 0
b71 - d62_71 - d76_71 = 0
b71 - d71_63 - d71_79 = 0
b72 - d64_72 - d69_72 - d70_72 - d73_72 - d74_72 - d75_72 - d77_72 = 0
b72 - d72_20 = 0
b73 - d58_73 = 0
b73 - d73_72 = 0
b74 - d59_74 = 0
b74 - d74_72 = 0
b75 - d60_75 = 0
b75 - d75_72 = 0
b76 - d61_76 = 0
b76 - d76_71 = 0
b77 - d63_77 = 0
b77 - d77_72 = 0
b78 - d68_78 = 0
b78 - d78_86 = 0
b79 - d71_79 = 0
b79 - d79_65 - d79_80 = 0
b80 - d79_80 = 0
b80 - d80_70 = 0
b81 - d66_81 = 0
b81 - d81_82 - d81_84 = 0
b82 - d81_82 - d84_82 = 0
b82 - d82_83 - d82_85 = 0
b83 - d82_83 - d85_83 = 0
b83 - d83_67 = 0
b84 - d81_84 = 0
b84 - d84_82 = 0
b85 - d82_85 = 0
b85 - d85_83 = 0
b86 - d78_86 = 0
b86 - d86_97 = 0
b87 - d98_87 = 0
b87 - d87_99 = 0
b88 - d99_88 = 0
b88 - d88_89 - d88_93 = 0
b89 - d88_89 - d93_89 - d95_89 = 0
b89 - d89_100 = 0
b90 - d100_90 = 0
b90 - d90_91 - d90_94 = 0
b91 - d90_91 - d94_91 = 0
b91 - d91_101 = 0
b92 - d102_92 = 0
b92 - d92_69 = 0
b93 - d88_93 = 0
b93 - d93_89 - d93_95 = 0
b94 - d90_94 = 0
b94 - d94_91 = 0
b95 - d93_95 = 0
b95 - d95_89 - d95_96 = 0
b96 - d95_96 = 0
b96 - d96_103 = 0
b97 - d86_97 = 0
b97 - d97_98 = 0
b98 - d97_98 = 0
b98 - d98_87 = 0
b99 - d87_99 = 0
b99 - d99_88 = 0
b100 - d89_100 = 0
b100 - d100_90 = 0
b101 - d91_101 = 0
b101 - d101_102 = 0
b102 - d101_102 = 0
b102 - d102_92 = 0
b103 - d96_103 = 0
b103 - d103_104 = 0
b104 - d103_104 = 0
b104 - d104_106 = 0
b106 - d104_106 = 0
b106 - d106_108 = 0
b107 - d108_107 = 0
b108 - d106_108 = 0
b108 - d108_107 = 0
b110 - d20_110 = 0
b110 - d110_111 = 0
b111 - d110_111 = 0
b111 - d111_21 = 0
b112 - d25_112 = 0
b112 - d112_113 = 0
b113 - d112_113 = 0
b113 - d113_7 = 0
b114 - d26_114 = 0
b114 - d114_115 = 0
b115 - d114_115 = 0
b115 - d115_10 = 0


\ === header constraints ===
b15 - 61 d14_15 <= 0
b16 - 254 d28_16 <= 0
b66 - 64 d65_66 <= 0
b44 - 47 d43_44 <= 0


\ === context constraints ===
b3 - b3.v0 - b3.v1 = 0
b3.v0 - d2_3 = 0
b3.v1 - d23_3 = 0
b4 - b4.v0 - b4.v1 - b4.v2 = 0
b4.v0 - d3_4 = 0
b4.v1 - d24_4 = 0
b4.v2 - d29_4 = 0
b12 - b12.v0 - b12.v1 = 0
b12.v0 - d11_12 = 0
b12.v1 - d27_12 = 0
b15 - b15.v0 - b15.v1 = 0
b15.v0 - d14_15 = 0
b15.v1 - d18_15 = 0
b16 - b16.v0 - b16.v1 = 0
b16.v0 - d16_16 = 0
b16.v1 - d28_16 = 0
b17 - b17.v0 - b17.v1 = 0
b17.v0 - d16_17 = 0
b17.v1 - d28_17 = 0
b18 - b18.v0 - b18.v1 = 0
b18.v0 - d15_18 = 0
b18.v1 - d17_18 = 0
b19 - b19.v0 - b19.v1 = 0
b19.v0 - d14_19 = 0
b19.v1 - d18_19 = 0
b22 - b22.v0 - b22.v1 - b22.v2 - b22.v3 - b22.v4 = 0
b22.v0 - d5_22 = 0
b22.v1 - d7_22 = 0
b22.v2 - d10_22 = 0
b22.v3 - d13_22 = 0
b22.v4 - d21_22 = 0
b33 - b33.v0 - b33.v1 = 0
b33.v0 - d32_33 = 0
b33.v1 - d36_33 = 0
b35 - b35.v0 - b35.v1 = 0
b35.v0 - d33_35 = 0
b35.v1 - d34_35 = 0
b40 - b40.v0 - b40.v1 = 0
b40.v0 - d39_40 = 0
b40.v1 - d48_40 = 0
b42 - b42.v0 - b42.v1 = 0
b42.v0 - d41_42 = 0
b42.v1 - d49_42 = 0
b44 - b44.v0 - b44.v1 = 0
b44.v0 - d43_44 = 0
b44.v1 - d45_44 = 0
b46 - b46.v0 - b46.v1 = 0
b46.v0 - d43_46 = 0
b46.v1 - d45_46 = 0
b47 - b47.v0 - b47.v1 - b47.v2 = 0
b47.v0 - d46_47 = 0
b47.v1 - d50_47 = 0
b47.v2 - d51_47 = 0
b66 - b66.v0 - b66.v1 = 0
b66.v0 - d65_66 = 0
b66.v1 - d67_66 = 0
b68 - b68.v0 - b68.v1 = 0
b68.v0 - d65_68 = 0
b68.v1 - d67_68 = 0
b69 - b69.v0 - b69.v1 = 0
b69.v0 - d68_69 = 0
b69.v2 - d92_69 = 0
b71 - b71.v0 - b71.v1 = 0
b71.v0 - d62_71 = 0
b71.v1 - d76_71 = 0
b72 - b72.v0 - b72.v1 - b72.v2 - b72.v3 - b72.v4 - b72.v5 - b72.v6 = 0
b72.v0 - d64_72 = 0
b72.v1 - d69_72 = 0
b72.v2 - d70_72 = 0
b72.v3 - d73_72 = 0
b72.v4 - d74_72 = 0
b72.v5 - d75_72 = 0
b72.v6 - d77_72 = 0
b82 - b82.v0 - b82.v1 = 0
b82.v0 - d81_82 = 0
b82.v1 - d84_82 = 0
b83 - b83.v0 - b83.v1 = 0
b83.v0 - d82_83 = 0
b83.v1 - d85_83 = 0
b89 - b89.v0 - b89.v1 - b89.v2 = 0
b89.v0 - d88_89 = 0
b89.v1 - d93_89 = 0
b89.v2 - d95_89 = 0
b91 - b91.v0 - b91.v1 = 0
b91.v0 - d90_91 = 0
b91.v1 - d94_91 = 0


\ === inst cache constraints ===
b15 - x15_0.h - x15_0.m = 0
x15_0.m <= 1
b15 - x15_1.h - x15_1.m = 0
x15_1.m <= 1
b15 - x15_2.h - x15_2.m = 0
x15_2.m <= 1
b16 - x16_0.h - x16_0.m = 0
x16_0.m <= 1
b16 - x16_1.h - x16_1.m = 0
x16_1.m <= 1
b16 - x16_2.h - x16_2.m = 0
x16_2.m <= 1
b17 - x17_0.h - x17_0.m = 0
x17_0.m <= 1
b17 - x17_1.h - x17_1.m = 0
x17_1.m <= 1
b17 - x17_2.h - x17_2.m = 0
x17_2.m <= 1
b18 - x18_0.h - x18_0.m = 0
x18_0.m <= 1
b18 - x18_1.h - x18_1.m = 0
x18_1.m <= 1
b44 - x44_0.h - x44_0.m = 0
x44_0.m <= 1
b67 - x67_0.h - x67_0.m = 0
x67_0.m <= 1
b81 - x81_0.h - x81_0.m = 0
x81_0.m <= 1
b81 - x81_1.h - x81_1.m = 0
x81_1.m <= 1
b81 - x81_2.h - x81_2.m = 0
x81_2.m <= 1
b81 - x81_3.h - x81_3.m = 0
x81_3.m <= 1
b81 - x81_4.h - x81_4.m = 0
x81_4.m <= 1
b81 - x81_5.h - x81_5.m = 0
x81_5.m <= 1
b81 - x81_6.h - x81_6.m = 0
x81_6.m <= 1
b82 - x82_0.h - x82_0.m = 0
x82_0.m <= 1
b82 - x82_1.h - x82_1.m = 0
x82_1.m <= 1
b82 - x82_2.h - x82_2.m = 0
x82_2.m <= 1
b82 - x82_3.h - x82_3.m = 0
x82_3.m <= 1
b83 - x83_0.h - x83_0.m = 0
x83_0.m <= 1
b84 - x84_0.h - x84_0.m = 0
x84_0.m <= 1
b85 - x85_0.h - x85_0.m = 0
x85_0.m <= 1
b85 - x85_1.h - x85_1.m = 0
x85_1.m <= 1


\ === data cache constraints ===
b15 - dr15_0.h - dr15_0.m = 0
dr15_0.m <= 1
b15 - dr15_1.h - dr15_1.m = 0
dr15_1.m <= 1
b15 - dr15_2.h - dr15_2.m = 0
dr15_2.m <= 1
b15 - dr15_3.h - dr15_3.m = 0
dr15_3.m <= 1
b15 - dr15_4.h - dr15_4.m = 0
dr15_4.m <= 1
b15 - dr15_5.h - dr15_5.m = 0
dr15_5.m <= 1
b15 - dr15_6.h - dr15_6.m = 0
dr15_6.m <= 1
b16 - dr16_0.h - dr16_0.m = 0
dr16_0.m <= 1
b16 - dr16_1.h - dr16_1.m = 0
dr16_1.m <= 1
b16 - dr16_2.h - dr16_2.m = 0
dr16_2.m <= 1
b16 - dr16_3.h - dr16_3.m = 0
dr16_3.m <= 1
b16 - dr16_4.h - dr16_4.m = 0
dr16_4.m <= 1
b16 - dr16_5.h - dr16_5.m = 0
dr16_5.m <= 1
b16 - dr16_6.h - dr16_6.m = 0
dr16_6.m <= 1
b17 - dr17_0.h - dr17_0.m = 0
dr17_0.m <= 1
b17 - dr17_1.h - dr17_1.m = 0
dr17_1.m <= 1
b17 - dr17_2.h - dr17_2.m = 0
dr17_2.m <= 1
b17 - dr17_3.h - dr17_3.m = 0
dr17_3.m <= 1
b17 - dr17_4.h - dr17_4.m = 0
dr17_4.m <= 1
b17 - dr17_5.h - dr17_5.m = 0
dr17_5.m <= 1
b18 - dr18_0.h - dr18_0.m = 0
dr18_0.m <= 1
b18 - dr18_1.h - dr18_1.m = 0
dr18_1.m <= 1
b18 - dr18_2.h - dr18_2.m = 0
dr18_2.m <= 1
b44 - dr44_0.h - dr44_0.m = 0
dr44_0.m <= 1
b44 - dr44_1.h - dr44_1.m = 0
dr44_1.m <= 1
b44 - dr44_2.h - dr44_2.m = 0
dr44_2.m <= 1
b45 - dr45_0.h - dr45_0.m = 0
dr45_0.m <= 1
b45 - dr45_1.h - dr45_1.m = 0
dr45_1.m <= 1
b45 - dr45_2.h - dr45_2.m = 0
dr45_2.m <= 1
b45 - dr45_3.h - dr45_3.m = 0
dr45_3.m <= 1
b50 - dr50_0.h - dr50_0.m = 0
dr50_0.m <= 1
b66 - dr66_0.h - dr66_0.m = 0
dr66_0.m <= 1
b67 - dr67_0.h - dr67_0.m = 0
dr67_0.m <= 1
b81 - dr81_0.h - dr81_0.m = 0
dr81_0.m <= 1
b81 - dr81_1.h - dr81_1.m = 0
dr81_1.m <= 1
b81 - dr81_2.h - dr81_2.m = 0
dr81_2.m <= 1
b81 - dr81_3.h - dr81_3.m = 0
dr81_3.m <= 1
b81 - dr81_4.h - dr81_4.m = 0
dr81_4.m <= 1
b81 - dr81_5.h - dr81_5.m = 0
dr81_5.m <= 1
b81 - dr81_6.h - dr81_6.m = 0
dr81_6.m <= 1
b81 - dr81_7.h - dr81_7.m = 0
dr81_7.m <= 1
b81 - dr81_8.h - dr81_8.m = 0
dr81_8.m <= 1
b81 - dr81_9.h - dr81_9.m = 0
dr81_9.m <= 1
b81 - dr81_10.h - dr81_10.m = 0
dr81_10.m <= 1
b81 - dr81_11.h - dr81_11.m = 0
dr81_11.m <= 1
b81 - dr81_12.h - dr81_12.m = 0
dr81_12.m <= 1
b81 - dr81_13.h - dr81_13.m = 0
dr81_13.m <= 1
b81 - dr81_14.h - dr81_14.m = 0
dr81_14.m <= 1
b81 - dr81_15.h - dr81_15.m = 0
dr81_15.m <= 1
b81 - dr81_16.h - dr81_16.m = 0
dr81_16.m <= 1
b81 - dr81_17.h - dr81_17.m = 0
dr81_17.m <= 1
b81 - dr81_18.h - dr81_18.m = 0
dr81_18.m <= 1
b81 - dr81_19.h - dr81_19.m = 0
dr81_19.m <= 1
b81 - dr81_20.h - dr81_20.m = 0
dr81_20.m <= 1
b82 - dr82_0.h - dr82_0.m = 0
dr82_0.m <= 1
b82 - dr82_1.h - dr82_1.m = 0
dr82_1.m <= 1
b82 - dr82_2.h - dr82_2.m = 0
dr82_2.m <= 1
b82 - dr82_3.h - dr82_3.m = 0
dr82_3.m <= 1
b82 - dr82_4.h - dr82_4.m = 0
dr82_4.m <= 1
b82 - dr82_5.h - dr82_5.m = 0
dr82_5.m <= 1
b82 - dr82_6.h - dr82_6.m = 0
dr82_6.m <= 1
b82 - dr82_7.h - dr82_7.m = 0
dr82_7.m <= 1
b82 - dr82_8.h - dr82_8.m = 0
dr82_8.m <= 1
b83 - dr83_0.h - dr83_0.m = 0
dr83_0.m <= 1
b84 - dr84_0.h - dr84_0.m = 0
dr84_0.m <= 1
b84 - dr84_1.h - dr84_1.m = 0
dr84_1.m <= 1
b85 - dr85_0.h - dr85_0.m = 0
dr85_0.m <= 1
b85 - dr85_1.h - dr85_1.m = 0
dr85_1.m <= 1
b85 - dr85_2.h - dr85_2.m = 0
dr85_2.m <= 1
b85 - dr85_3.h - dr85_3.m = 0
dr85_3.m <= 1
b85 - dr85_4.h - dr85_4.m = 0
dr85_4.m <= 1
b85 - dr85_5.h - dr85_5.m = 0
dr85_5.m <= 1
b85 - dr85_6.h - dr85_6.m = 0
dr85_6.m <= 1


Generals


b0
b1
b2
b3
b3.v0
b3.v1
b4
b4.v0
b4.v1
b4.v2
b5
b6
b7
b8
b9
b10
b11
b12
b12.v0
b12.v1
b13
b14
b15
b15.v0
b15.v1
b16
b16.v0
b16.v1
b17
b17.v0
b17.v1
b18
b18.v0
b18.v1
b19
b19.v0
b19.v1
b20
b21
b22
b22.v0
b22.v1
b22.v2
b22.v3
b22.v4
b23
b24
b25
b26
b27
b28
b29
b30
b31
b32
b33
b33.v0
b33.v1
b34
b35
b35.v0
b35.v1
b36
b37
b38
b39
b40
b40.v0
b40.v1
b41
b42
b42.v0
b42.v1
b43
b44
b44.v0
b44.v1
b45
b46
b46.v0
b46.v1
b47
b47.v0
b47.v1
b47.v2
b48
b49
b50
b51
b52
b53
b54
b55
b56
b57
b58
b59
b60
b61
b62
b63
b64
b65
b66
b66.v0
b66.v1
b67
b68
b68.v0
b68.v1
b69
b69.v0
b69.v1
b70
b71
b71.v0
b71.v1
b72
b72.v0
b72.v1
b72.v2
b72.v3
b72.v4
b72.v5
b72.v6
b73
b74
b75
b76
b77
b78
b79
b80
b81
b82
b82.v0
b82.v1
b83
b83.v0
b83.v1
b84
b85
b86
b87
b88
b89
b89.v0
b89.v1
b89.v2
b90
b91
b91.v0
b91.v1
b92
b93
b94
b95
b96
b97
b98
b99
b100
b101
b102
b103
b104
b106
b107
b108
b110
b111
b112
b113
b114
b115
d0_30
d1_32
d2_3
d2_23
d3_4
d3_24
d4_37
d5_22
d6_8
d6_25
d7_22
d8_39
d9_11
d9_26
d10_22
d11_12
d11_27
d12_56
d13_22
d14_15
d14_19
d15_18
d15_28
d16_16
d16_17
d17_18
d18_15
d18_19
d19_58
d20_110
d21_22
d23_3
d24_4
d24_29
d25_112
d26_114
d27_12
d27_14
d28_16
d28_17
d29_4
d29_6
d30_31
d31_1
d32_33
d32_36
d33_35
d34_35
d35_2
d36_33
d36_34
d37_38
d38_5
d39_40
d39_48
d40_52
d41_42
d41_49
d42_54
d43_44
d43_46
d44_45
d44_50
d45_44
d45_46
d46_47
d47_9
d48_40
d48_51
d49_42
d50_47
d51_47
d52_53
d53_41
d54_55
d55_43
d56_57
d57_13
d58_59
d58_73
d59_60
d59_74
d60_61
d60_75
d61_62
d61_76
d62_71
d63_64
d63_77
d64_72
d65_66
d65_68
d66_81
d67_66
d67_68
d68_69
d68_78
d69_72
d70_72
d71_63
d71_79
d72_20
d73_72
d74_72
d75_72
d76_71
d77_72
d78_86
d79_65
d79_80
d80_70
d81_82
d81_84
d82_83
d82_85
d83_67
d84_82
d85_83
d86_97
d87_99
d88_89
d88_93
d89_100
d90_91
d90_94
d91_101
d92_69
d93_89
d93_95
d94_91
d95_89
d95_96
d96_103
d97_98
d98_87
d99_88
d100_90
d101_102
d102_92
d103_104
d104_106
d106_108
d108_107
d110_111
d111_21
d112_113
d113_7
d114_115
d115_10
dSta_0
dr15_0.h
dr15_0.m
dr15_1.h
dr15_1.m
dr15_2.h
dr15_2.m
dr15_3.h
dr15_3.m
dr15_4.h
dr15_4.m
dr15_5.h
dr15_5.m
dr15_6.h
dr15_6.m
dr16_0.h
dr16_0.m
dr16_1.h
dr16_1.m
dr16_2.h
dr16_2.m
dr16_3.h
dr16_3.m
dr16_4.h
dr16_4.m
dr16_5.h
dr16_5.m
dr16_6.h
dr16_6.m
dr17_0.h
dr17_0.m
dr17_1.h
dr17_1.m
dr17_2.h
dr17_2.m
dr17_3.h
dr17_3.m
dr17_4.h
dr17_4.m
dr17_5.h
dr17_5.m
dr18_0.h
dr18_0.m
dr18_1.h
dr18_1.m
dr18_2.h
dr18_2.m
dr44_0.h
dr44_0.m
dr44_1.h
dr44_1.m
dr44_2.h
dr44_2.m
dr45_0.h
dr45_0.m
dr45_1.h
dr45_1.m
dr45_2.h
dr45_2.m
dr45_3.h
dr45_3.m
dr50_0.h
dr50_0.m
dr66_0.h
dr66_0.m
dr67_0.h
dr67_0.m
dr81_0.h
dr81_0.m
dr81_1.h
dr81_1.m
dr81_2.h
dr81_2.m
dr81_3.h
dr81_3.m
dr81_4.h
dr81_4.m
dr81_5.h
dr81_5.m
dr81_6.h
dr81_6.m
dr81_7.h
dr81_7.m
dr81_8.h
dr81_8.m
dr81_9.h
dr81_9.m
dr81_10.h
dr81_10.m
dr81_11.h
dr81_11.m
dr81_12.h
dr81_12.m
dr81_13.h
dr81_13.m
dr81_14.h
dr81_14.m
dr81_15.h
dr81_15.m
dr81_16.h
dr81_16.m
dr81_17.h
dr81_17.m
dr81_18.h
dr81_18.m
dr81_19.h
dr81_19.m
dr81_20.h
dr81_20.m
dr82_0.h
dr82_0.m
dr82_1.h
dr82_1.m
dr82_2.h
dr82_2.m
dr82_3.h
dr82_3.m
dr82_4.h
dr82_4.m
dr82_5.h
dr82_5.m
dr82_6.h
dr82_6.m
dr82_7.h
dr82_7.m
dr82_8.h
dr82_8.m
dr83_0.h
dr83_0.m
dr84_0.h
dr84_0.m
dr84_1.h
dr84_1.m
dr85_0.h
dr85_0.m
dr85_1.h
dr85_1.m
dr85_2.h
dr85_2.m
dr85_3.h
dr85_3.m
dr85_4.h
dr85_4.m
dr85_5.h
dr85_5.m
dr85_6.h
dr85_6.m
x15_0.h
x15_0.m
x15_1.h
x15_1.m
x15_2.h
x15_2.m
x16_0.h
x16_0.m
x16_1.h
x16_1.m
x16_2.h
x16_2.m
x17_0.h
x17_0.m
x17_1.h
x17_1.m
x17_2.h
x17_2.m
x18_0.h
x18_0.m
x18_1.h
x18_1.m
x44_0.h
x44_0.m
x67_0.h
x67_0.m
x81_0.h
x81_0.m
x81_1.h
x81_1.m
x81_2.h
x81_2.m
x81_3.h
x81_3.m
x81_4.h
x81_4.m
x81_5.h
x81_5.m
x81_6.h
x81_6.m
x82_0.h
x82_0.m
x82_1.h
x82_1.m
x82_2.h
x82_2.m
x82_3.h
x82_3.m
x83_0.h
x83_0.m
x84_0.h
x84_0.m
x85_0.h
x85_0.m
x85_1.h
x85_1.m


End
\ total cons: 605    total vars: 527
